43
145
124
138
190
85
157
105
114
57
202
181
164
57
23
242
140
245
12
56
140
231
15
126
34
243
226
9
30
36
52
36
28
4
144
244
243
48
159
98
115
54
27
21
163
90
65
20
78
222
138
180
3
249
52
15
117
228
212
240
107
49
110
89
108
97
56
58
143
113
165
12
178
232
90
145
161
144
51
42
231
118
27
98
98
217
202
241
231
44
192
52
91
128
165
77
77
74
33
155
